









































































































23 12 1 60 34 13 39 22 
14 44 43 45 69 0 15 55 
49 54 71 66 53 40 11 31 46 
28 18 56 73 16 74 52 
64 33 19 32 72 57 10 61 5 21 
2 42 6 7 62 58 17 24 9 
27 48 3 47 41 38 65 35 68 25 
30 37 50 36 26 63 59 70 76 
29 8 20 51 4 67 75 
